NAME : sim71.85661.tour
COMMENT : Length = 85661
COMMENT : Found by LKH [Keld Helsgaun] Sat Sep 15 16:45:44 2018
TYPE : TOUR
DIMENSION : 71
TOUR_SECTION
1
12
5
20
71
53
55
43
68
31
48
29
23
39
3
49
62
11
59
13
21
61
19
41
37
38
16
51
54
65
34
50
28
15
14
69
32
46
22
47
6
25
8
9
66
58
10
52
44
67
45
36
42
4
57
24
70
35
60
17
63
30
64
2
27
26
56
40
33
7
18
-1
EOF
